Version identifier: 20.1.0.0 | 2020-11-10 | 9bedb6d68
CPXPARAM_Threads                                 1
CPXPARAM_TimeLimit                               7200
CPXPARAM_MIP_Tolerances_MIPGap                   0
Generic callback                                 0x60
1 of 1 MIP starts provided solutions.
MIP start 'm1' defined initial solution with objective 3575.0724.
Tried aggregator 1 time.
Reduced MIP has 1 rows, 1001 columns, and 1000 nonzeros.
Reduced MIP has 1000 binaries, 0 generals, 0 SOSs, and 0 indicators.
Presolve time = 0.00 sec. (0.30 ticks)
Probing time = 0.00 sec. (0.11 ticks)
Tried aggregator 1 time.
Reduced MIP has 1 rows, 1001 columns, and 1000 nonzeros.
Reduced MIP has 1000 binaries, 0 generals, 0 SOSs, and 0 indicators.
Presolve time = 0.00 sec. (0.31 ticks)
Probing time = 0.00 sec. (0.11 ticks)
MIP emphasis: balance optimality and feasibility.
MIP search method: dynamic search.
Parallel mode: none, using 1 thread.
Root relaxation solution time = 0.00 sec. (0.21 ticks)

        Nodes                                         Cuts/
   Node  Left     Objective  IInf  Best Integer    Best Bound    ItCnt     Gap

*     0+    0                         3575.0724     5432.0000            51.94%
      0     0     5432.0000     2     3575.0724     5432.0000        0   51.94%
      0     0     4545.5185     3     3575.0724 UserPurge2: 1       10   27.14%
      0     0     4134.3292     4     3575.0724 UserPurge2: 1       18   15.64%
      0     0     3963.0847     5     3575.0724 UserPurge2: 1       30   10.85%
      0     0     3915.2328     6     3575.0724 UserPurge2: 1       39    9.51%
      0     0     3876.8488     6     3575.0724 UserPurge2: 1       54    8.44%
*     0+    0                         3590.7791     3876.8488             7.97%
      0     0     3869.4036     9     3590.7791 UserPurge2: 1       61    7.76%
      0     0     3862.5964     9     3590.7791 UserPurge2: 1       83    7.57%
      0     0     3853.5955    11     3590.7791 UserPurge2: 1      108    7.32%
      0     0     3830.9271    11     3590.7791 UserPurge2: 1      147    6.69%
      0     0     3823.8768    11     3590.7791 UserPurge1: 2      153    6.49%
      0     0     3806.2686     9     3590.7791 UserPurge2: 1      177    6.00%
      0     0     3798.1862     9     3590.7791 UserPurge2: 1      195    5.78%
      0     0     3793.6575    11     3590.7791 UserPurge1: 2      199    5.65%
      0     0     3779.6524     9     3590.7791 UserPurge2: 1      231    5.26%
      0     0     3765.9173     8     3590.7791 UserPurge2: 1      244    4.88%
      0     0     3762.4886     9     3590.7791 UserPurge1: 1      247    4.78%
      0     0     3750.1967     8     3590.7791 UserPurge2: 1      262    4.44%
      0     0     3747.0991     9     3590.7791 UserPurge1: 2      267    4.35%
      0     0     3745.9288     9     3590.7791 UserPurge2: 1      278    4.32%
      0     0     3741.9642    11     3590.7791 UserPurge2: 1      302    4.21%
      0     0     3736.9312     8     3590.7791 UserPurge2: 1      322    4.07%
      0     0     3731.4359     9     3590.7791 UserPurge2: 1      329    3.92%
      0     0     3730.5491    11     3590.7791 UserPurge1: 4      340    3.89%
      0     0     3730.1794    13     3590.7791 UserPurge1: 2      341    3.88%
      0     0     3718.4686     7     3590.7791 UserPurge2: 1      381    3.56%
      0     0     3714.9879     9     3590.7791 UserPurge2: 1      384    3.46%
      0     0     3712.4586    10     3590.7791 UserPurge2: 1      409    3.39%
      0     0     3707.2242     9     3590.7791 UserPurge2: 1      434    3.24%
      0     0     3706.5608    10     3590.7791 UserPurge2: 1      441    3.22%
      0     0     3706.0932    11     3590.7791 UserPurge2: 1      454    3.21%
      0     0     3705.1724    11     3590.7791 UserPurge2: 1      464    3.19%
      0     0     3703.5081    11     3590.7791 UserPurge2: 1      479    3.14%
      0     0     3696.5738    10     3590.7791 UserPurge2: 1      502    2.95%
      0     0     3695.0983    11     3590.7791 UserPurge2: 1      512    2.91%
      0     0     3694.2670    12     3590.7791 UserPurge2: 1      526    2.88%
      0     0     3691.4380    10     3590.7791 UserPurge2: 1      544    2.80%
*     0+    0                         3591.9504     3691.4380             2.77%
      0     0     3690.8612    10     3591.9504 UserPurge2: 1      551    2.75%
      0     0     3690.5149    11     3591.9504 UserPurge2: 1      562    2.74%
      0     0     3689.9857    12     3591.9504 UserPurge2: 1      569    2.73%
*     0+    0                         3623.9971     3689.9857             1.82%
      0     0     3688.8425    13     3623.9971 UserPurge2: 1      595    1.79%
      0     0     3687.5961    12     3623.9971 UserPurge2: 1      615    1.75%
      0     0     3686.9366    13     3623.9971 UserPurge2: 1      625    1.74%
      0     0     3686.5745    14     3623.9971 UserPurge2: 1      632    1.73%
      0     0     3685.6477    15     3623.9971 UserPurge2: 1      651    1.70%
      0     0     3683.7047    14     3623.9971 UserPurge2: 1      679    1.65%
      0     0     3682.9744    13     3623.9971 UserPurge2: 1      687    1.63%
      0     0     3682.3941    14     3623.9971 UserPurge2: 1      698    1.61%
      0     0     3681.9188    15     3623.9971 UserPurge2: 1      708    1.60%
      0     0     3680.7075    13     3623.9971 UserPurge2: 1      724    1.56%
      0     0     3679.8444    13     3623.9971 UserPurge2: 1      740    1.54%
      0     0     3679.3714    14     3623.9971 UserPurge2: 1      750    1.53%
      0     0     3679.2682    14     3623.9971 UserPurge2: 1      757    1.53%
      0     0     3678.5056    15     3623.9971 UserPurge2: 1      771    1.50%
      0     0     3678.0430    16     3623.9971 UserPurge2: 1      792    1.49%
      0     0     3677.8564    15     3623.9971 UserPurge2: 1      805    1.49%
      0     0     3677.7201    15     3623.9971 UserPurge2: 1      815    1.48%
      0     0     3677.6394    16     3623.9971 UserPurge2: 1      824    1.48%
      0     0     3677.3830    16     3623.9971 UserPurge2: 1      839    1.47%
      0     0     3677.0347    17     3623.9971 UserPurge2: 1      849    1.46%
      0     0     3676.8667    18     3623.9971 UserPurge2: 1      862    1.46%
      0     0     3676.4724    18     3623.9971 UserPurge2: 1      886    1.45%
      0     0     3675.1668    18     3623.9971 UserPurge2: 1      915    1.41%
      0     0     3673.5450    16     3623.9971 UserPurge2: 1      939    1.37%
      0     0     3672.8958    16     3623.9971 UserPurge2: 1      959    1.35%
      0     0     3672.2983    17     3623.9971 UserPurge2: 1      974    1.33%
      0     0     3671.7672    17     3623.9971 UserPurge2: 1      988    1.32%
      0     0     3671.3432    18     3623.9971 UserPurge2: 1     1005    1.31%
      0     0     3670.9040    19     3623.9971 UserPurge2: 1     1027    1.29%
      0     0     3670.0533    18     3623.9971 UserPurge2: 1     1046    1.27%
      0     0     3669.0725    17     3623.9971 UserPurge2: 1     1066    1.24%
      0     0     3668.8786    18     3623.9971 UserPurge2: 1     1071    1.24%
      0     0     3668.4739    19     3623.9971 UserPurge2: 1     1084    1.23%
      0     0     3668.1416    20     3623.9971 UserPurge2: 1     1097    1.22%
      0     0     3667.7260    20     3623.9971 UserPurge2: 1     1107    1.21%
      0     0     3667.5186    19     3623.9971 UserPurge2: 1     1126    1.20%
      0     0     3667.2596    20     3623.9971 UserPurge2: 1     1147    1.19%
      0     0     3667.0422    20     3623.9971 UserPurge2: 1     1162    1.19%
      0     0     3666.9382    21     3623.9971 UserPurge2: 1     1168    1.18%
      0     0     3666.5184    20     3623.9971 UserPurge2: 1     1196    1.17%
      0     0     3666.0346    20     3623.9971 UserPurge2: 1     1222    1.16%
      0     0     3665.8615    21     3623.9971 UserPurge2: 1     1232    1.16%
      0     0     3665.4451    21     3623.9971 UserPurge2: 1     1267    1.14%
      0     0     3664.8062    21     3623.9971 UserPurge2: 1     1299    1.13%
      0     0     3663.8300    18     3623.9971 UserPurge2: 1     1332    1.10%
      0     0     3663.2166    19     3623.9971 UserPurge2: 1     1344    1.08%
      0     0     3663.0478    20     3623.9971 UserPurge2: 1     1366    1.08%
      0     0     3662.9032    20     3623.9971 UserPurge2: 1     1373    1.07%
      0     0     3662.8824    21     3623.9971 UserPurge2: 1     1376    1.07%
      0     0     3662.7051    22     3623.9971 UserPurge2: 1     1396    1.07%
      0     0     3662.4447    22     3623.9971 UserPurge2: 1     1412    1.06%
      0     0     3662.3115    23     3623.9971 UserPurge2: 1     1437    1.06%
      0     0     3661.9533    21     3623.9971 UserPurge2: 1     1469    1.05%
      0     0     3661.6636    21     3623.9971 UserPurge2: 1     1489    1.04%
      0     0     3661.4911    22     3623.9971 UserPurge2: 1     1500    1.03%
      0     0     3661.2230    22     3623.9971 UserPurge2: 1     1517    1.03%
      0     0     3660.7232    22     3623.9971 UserPurge2: 1     1548    1.01%
      0     0     3660.5669    22     3623.9971 UserPurge2: 1     1567    1.01%
      0     0     3660.2626    22     3623.9971 UserPurge2: 1     1591    1.00%
      0     0     3659.8411    22     3623.9971 UserPurge2: 1     1628    0.99%
      0     0     3659.5285    22     3623.9971 UserPurge2: 1     1661    0.98%
      0     0     3659.3261    22     3623.9971 UserPurge2: 1     1690    0.97%
      0     0     3659.2073    22     3623.9971 UserPurge2: 1     1704    0.97%
      0     0     3658.7638    22     3623.9971 UserPurge2: 1     1726    0.96%
      0     0     3658.6365    23     3623.9971 UserPurge2: 1     1736    0.96%
*     0+    0                         3625.3734     3658.6365             0.92%
      0     2     3658.6365    23     3625.3734     3658.6361     1736    0.92%
Elapsed time = 79.42 sec. (699.54 ticks, tree = 0.01 MB, solutions = 5)
      1     3     3643.1019    16     3625.3734     3658.6310    61171    0.92%
      2     4     3638.5116    14     3625.3734     3643.1019    69212    0.49%
      3     5     3637.6214     6     3625.3734     3643.1019    70251    0.49%
      4     6     3637.5433     4     3625.3734     3643.1019    70568    0.49%
      5     7     3637.4610     6     3625.3734     3643.1019    71024    0.49%
*     6     6      integral     0     3635.2480     3643.1019    71146    0.22%
      7     7     3637.4268     5     3635.2480     3643.1019    71331    0.22%
      8     8     3637.2181     2     3635.2480     3643.1019    71714    0.22%
      9     9     3637.1652     2     3635.2480     3643.1019    72039    0.22%
     11     9     3637.1048     2     3635.2480     3643.1019    72321    0.22%
Elapsed time = 797.48 sec. (138313.94 ticks, tree = 0.20 MB, solutions = 6)
     12    10     3635.7945     2     3635.2480     3643.1019    72495    0.22%
     13    11     3636.7286     2     3635.2480     3643.1019    72757    0.22%
     15    11     3636.5374     2     3635.2480     3643.1019    73258    0.22%
     17    11     3636.4152     9     3635.2480     3643.1019    74163    0.22%
     19     9        cutoff           3635.2480     3643.1019    74797    0.22%
*    20+    8                         3635.4603     3643.1019             0.21%
*    22     9      integral     0     3635.5181     3643.1019    74948    0.21%
     24     8     3642.9565     2     3635.5181     3643.1019    75877    0.21%
     25     9     3642.9479     2     3635.5181     3643.1019    76213    0.21%
     26    10     3639.3327     3     3635.5181     3643.1019    77491    0.21%
     27    11     3642.8853     2     3635.5181     3643.1019    77904    0.21%
     28    12     3639.9702     2     3635.5181     3643.1019    78280    0.21%
Elapsed time = 1226.23 sec. (169225.76 ticks, tree = 0.39 MB, solutions = 8)
     29    13     3642.8520     4     3635.5181     3643.1019    79146    0.21%
*    30+   11                         3636.4976     3643.1019             0.18%
     30    13     3636.6548     4     3636.4976     3643.1019    80765    0.18%
     31    14     3642.8250     2     3636.4976     3643.1019    81780    0.18%
     32    15     3642.8214     2     3636.4976     3643.1019    82058    0.18%
     33    16     3639.5129     2     3636.4976     3643.1019    82580    0.18%
     34    17     3642.8067    11     3636.4976     3643.1019    84096    0.18%
     35    18     3636.7752     2     3636.4976     3643.1019    84858    0.18%
     36    19     3636.7533     2     3636.4976     3643.1019    84960    0.18%
     38    18     3636.5297     4     3636.4976     3643.1019    85076    0.18%
     41    17     3642.8768     8     3636.4976     3642.8768    98714    0.18%
Elapsed time = 1715.99 sec. (280165.97 ticks, tree = 0.66 MB, solutions = 9)
     42    18     3642.8234    25     3636.4976     3642.8768   120230    0.18%
     43    19     3642.6191     4     3636.4976     3642.8768   121732    0.18%
     44    20     3642.5935     8     3636.4976     3642.8768   122882    0.18%
     45    21     3642.5608    10     3636.4976     3642.8768   123875    0.18%
     47    23     3642.2890     2     3636.4976     3642.8768   124225    0.18%
*    48    10      integral     0     3642.1151     3642.8768   124232    0.02%
     51     7        cutoff           3642.1151     3642.8233   124442    0.02%
     52     6        cutoff           3642.1151     3642.8067   126897    0.02%
     53     7     3642.7933     2     3642.1151     3642.8059   127169    0.02%
     54     8     3642.7651     4     3642.1151     3642.8059   127242    0.02%
*    55     3      integral     0     3642.7019     3642.8059   127247    0.00%

User cuts applied:  9359

Root node processing (before b&c):
  Real time             =   79.44 sec. (726.40 ticks)
Sequential b&c:
  Real time             = 2151.48 sec. (444854.79 ticks)
                          ------------
Total (root+branch&cut) = 2230.92 sec. (445581.19 ticks)
@Parameters: 
is_S_cut                                true
is_add_all_yinF                         true
is_start_value                          true
is_usercut                              true
is_visualization                        false
uc_only_rootnode                        false

data                                    Qi
fn                                      data/Qi/instance_1000_1000.csv
mode                                    NewSubmodular
solver                                  cplex

p                                       5
r                                       2

EPS                                     1.0e-06
EPS_vio                                 1.0e-04
beta                                    0.10
gap                                     0.00
nodelimit                               Inf
timelimit                               7200.00


@PrintInfos
ItCnt: 127278
Current gap: 0.00 %
Termination Status: OPTIMAL
Primal Status: FEASIBLE_POINT
Solve Time: 2230.92 sec
Objective Value: 3642.701856
Number of Nodes:     59

CutInfo: [phase] num / time (sec) 
ZLP             [phase1]     0 / 0.00 [rLC]     0 / 0.00 [rUC]     0 / 0.00 [sLC]     0 / 0.00 [sUC]     0 / 0.00 
OldSubmodular   [phase1]     0 / 0.00 [rLC]     0 / 0.00 [rUC]     0 / 0.00 [sLC]     0 / 0.00 [sUC]     0 / 0.00 
NewSubmodular   [phase1]     0 / 0.00 [rLC]   143 / 52.69 [rUC]   426 / 24.02 [sLC]     0 / 25.53 [sUC]  9324 / 1684.91 
PMP             [phase1]     0 / 0.00 [rLC]    11 / 46.32 [rUC]     0 / 0.00 [sLC]     6 / 25.40 [sUC]    85 / 381.64 
Separation Round: [phase1] 0  [rLC] 60  [rUC] 106  [sLC] 6  [sUC] 2786
Root Best Bound 3643.101894
Root Best Integer: 3625.373444
Best Bound: 3642.701856
Best Integer: 3642.701856

